
%FILE DATA:	Soccer Computational Problem for MiniZinc Models	%
%AUTHOR:	Jack Wall	%
%CONTACT:  	116397063@umail.ucc.ie			%
%LAST UPDATE:	01/22/2020, 10:43:02						%
%DESCRIPTION: 	340 games played with 40 games left				%

n=20; %number of teams

%Games to play
games=[|11,9|11,20|17,6|2,11|15,9|3,14|4,18|15,13|10,11|8,2|13,11|20,14|18,1|1,10|7,2|4,16|18,8|10,3|10,12|3,1|4,15|5,9|6,17|11,15|6,14|10,15|1,19|8,4|19,16|13,6|3,10|12,19|14,16|8,17|14,9|19,7|18,11|10,13|4,1|5,19|];

%Initial points
iPoints=[46,42,41,59,56,58,54,38,40,48,55,44,47,33,41,41,43,48,38,46];

%POSITION CONSTRAINTS
% [|teamID, operator, position|...]
% operators index:
%  1 for =  operator
%  2 for >  operator
%  3 for >= operator
%  4 for <  operator
%  5 for <= operator
positionConstraints=[|11,4,2|4,4,3|6,4,4|];